gen cost
0 1461
1 1455
2 1452
3 1452
4 1431
5 1413
6 1413
7 1395
8 1395
9 1395
10 1391
11 1391
12 1391
13 1331
14 1331
15 1331
16 1331
17 1331
18 1331
19 1331
20 1331
21 1331
22 1331
23 1331
24 1331
25 1331
26 1331
27 1331
28 1331
29 1331
30 1331
31 1331
32 1331
33 1331
34 1331
35 1331
36 1331
37 1331
38 1331
39 1331
40 1331
41 1331
42 1331
43 1331
44 1331
45 1331
46 1331
47 1331
48 1331
49 1331
